ALGO = Normal
EDIFF = 1e-08
EDIFFG = -0.01
ENCUT = 520.0
IBRION = 8
ISIF = 3
ISMEAR = -5
ISPIN = 2
ISTART = 1
KPOINT_BSE = -1 0 0 0
LAECHG = True
LASPH = True
LCHARGE = True
LEPSILON = True
LMAXMIX = 4
LORBIT = 11
LPEAD = True
LREAL = Auto
LVHAR = True
LWAVE = False
MAGMOM = 12*-0.0
NELM = 100
PREC = accurate
SIGMA = 0.05
